c uprop, v00.0, 
c reading from data/prog862.c.cnf
c done reading: 0.003029
p cnf 85 316
-34 -51 0
-37 -51 0
34 37 51 0
34 37 -57 0
-34 -37 -57 0
-34 37 57 0
34 -37 57 0
-40 51 0
-40 -43 0
40 43 -51 0
43 -45 -51 0
-43 -45 51 0
43 45 51 0
-43 45 -51 0
40 -49 0
-49 -53 0
-40 49 53 0
-40 53 -54 0
40 -53 -54 0
40 53 54 0
-40 -53 54 0
49 -56 0
-56 -60 0
-49 56 60 0
-36 -49 60 0
-36 49 -60 0
36 49 60 0
36 -49 -60 0
-32 56 0
-32 -39 0
32 39 -56 0
-31 39 -56 0
-31 -39 56 0
31 39 56 0
31 -39 -56 0
-30 32 0
-30 -44 0
30 -32 44 0
-29 -32 44 0
-29 32 -44 0
29 32 44 0
29 -32 -44 0
-28 30 0
-28 -48 0
28 -30 48 0
-27 -30 48 0
-27 30 -48 0
27 30 48 0
27 -30 -48 0
-26 -34 0
-26 -37 0
26 34 37 0
-25 34 37 0
-25 -34 -37 0
25 -34 37 0
25 34 -37 0
-24 26 0
-24 -43 0
24 -26 43 0
-23 -26 43 0
-23 26 -43 0
23 26 43 0
23 -26 -43 0
-22 24 0
-22 -53 0
22 -24 53 0
-21 -24 53 0
-21 24 -53 0
21 24 53 0
21 -24 -53 0
-20 22 0
-20 -60 0
20 -22 60 0
-22 60 -61 0
22 -60 -61 0
22 60 61 0
-22 -60 61 0
20 -62 0
-39 -62 0
-20 39 62 0
-20 39 -63 0
20 -39 -63 0
20 39 63 0
-20 -39 63 0
62 -64 0
-44 -64 0
44 -62 64 0
44 -62 -65 0
-44 62 -65 0
44 62 65 0
-44 -62 65 0
64 -66 0
-48 -66 0
48 -64 66 0
-35 48 -64 0
-35 -48 64 0
35 48 64 0
35 -48 -64 0
-68 -69 0
68 69 0
-70 -72 0
70 72 0
-71 -74 0
71 74 0
-68 75 0
68 -75 0
68 -75 -76 0
-75 -76 0
-68 75 76 0
75 76 0
-70 77 0
-70 -75 77 0
-75 77 0
70 75 -77 0
70 -77 -78 0
75 -77 -78 0
-70 77 78 0
77 78 0
-75 77 78 0
-70 -75 78 0
-74 79 0
-74 -77 79 0
-77 79 0
74 77 -79 0
74 -79 -80 0
77 -79 -80 0
-74 79 80 0
79 80 0
-77 79 80 0
-74 -77 80 0
79 -81 0
-79 81 0
68 -82 0
-68 82 0
70 -83 0
-70 83 0
74 -84 0
-74 84 0
76 -85 0
-76 85 0
-52 -76 0
52 76 0
58 -78 0
58 -78 -85 0
58 -85 0
-58 78 85 0
-41 -58 78 0
-41 -58 85 0
41 58 -78 0
41 58 0
41 58 -85 0
41 -78 -85 0
46 -80 0
46 -58 -80 0
46 -58 0
-46 58 80 0
-46 -50 80 0
-46 -50 58 0
46 50 -80 0
46 50 0
46 50 -58 0
50 -58 -80 0
55 -81 0
-46 55 -81 0
-46 55 0
46 -55 81 0
-19 -55 81 0
-19 46 -55 0
19 55 -81 0
19 55 0
19 -46 55 0
19 -46 -81 0
18 -55 -82 0
-18 82 0
-18 55 82 0
-18 55 0
-17 -18 82 0
-17 -18 0
-17 -18 55 0
17 18 -82 0
17 18 -55 0
-17 55 82 0
16 -68 -83 0
16 -18 -83 0
16 -18 -68 0
-16 68 83 0
-16 18 83 0
-16 18 68 0
-15 -16 83 0
-15 -16 68 0
-15 -16 18 0
15 16 -83 0
15 16 -68 0
15 16 -18 0
15 -18 -68 -83 0
-15 18 68 83 0
14 -70 -84 0
14 -16 -84 0
14 -16 -70 0
-14 70 84 0
-14 16 84 0
-14 16 70 0
-13 -14 84 0
-13 -14 70 0
-13 -14 16 0
13 14 -84 0
13 14 -70 0
13 14 -16 0
13 -16 -70 -84 0
-13 16 70 84 0
12 -14 -74 0
-12 74 0
-12 14 0
-12 14 74 0
-11 -12 0
-11 -12 74 0
-11 -12 14 0
11 12 -74 0
11 12 -14 0
-11 14 74 0
-10 -52 0
10 52 0
-9 -41 0
9 41 0
-8 -50 0
8 50 0
-7 -19 0
7 19 0
-6 -17 0
6 17 0
-5 -15 0
5 15 0
-13 -33 0
13 33 0
-11 -42 0
11 42 0
-12 -59 0
12 59 0
34 -38 0
-38 52 0
-34 38 -52 0
-34 -52 0
34 52 0
-37 -41 47 0
-37 -38 47 0
-38 -41 47 0
37 41 -47 0
37 38 -47 0
38 41 -47 0
-37 47 0
-41 47 0
-38 47 0
-37 -38 -41 0
4 -43 -50 0
4 -43 -47 0
4 -47 -50 0
-4 43 50 0
-4 43 47 0
-4 47 50 0
-4 43 0
-4 50 0
-4 47 0
43 47 50 0
3 -19 -53 0
3 -4 -53 0
3 -4 -19 0
-3 19 53 0
-3 4 53 0
-3 4 19 0
3 -53 0
3 -19 0
3 -4 0
-4 -19 -53 0
-17 -60 67 0
-3 -60 67 0
-3 -17 67 0
17 60 -67 0
3 60 -67 0
3 17 -67 0
-60 67 0
-17 67 0
-3 67 0
-3 -17 -60 0
-15 -39 73 0
-39 -67 73 0
-15 -67 73 0
15 39 -73 0
39 67 -73 0
15 67 -73 0
-39 73 0
-15 73 0
-67 73 0
-15 -39 -67 0
2 -13 -44 0
2 -44 -73 0
2 -13 -73 0
-2 13 44 0
-2 44 73 0
-2 13 73 0
2 -44 0
2 -13 0
2 -73 0
-13 -44 -73 0
1 -11 -48 0
1 -2 -48 0
1 -2 -11 0
-1 11 48 0
-1 2 48 0
-1 2 11 0
1 -48 0
1 -11 0
1 -2 0
-2 -11 -48 0
-1 -12 0
1 -12 0
-1 12 0
